<?xml version = "1.0" encoding="UTF-8" standalone="yes"?>
<CPLEXSolution version="1.2">
 <header
   problemName="mknap5_cut_n2"
   objectiveValue="10058.576454668475"
   solutionTypeValue="1"
   solutionTypeString="basic"
   solutionStatusValue="1"
   solutionStatusString="optimal"
   solutionMethodString="dual"
   primalFeasible="1"
   dualFeasible="1"
   simplexIterations="4"
   writeLevel="1"/>
 <quality
   epRHS="9.9999999999999995e-07"
   epOpt="9.9999999999999995e-07"
   maxPrimalInfeas="0"
   maxDualInfeas="0"
   maxPrimalResidual="4.0856207306205761e-14"
   maxDualResidual="0"
   maxX="1"
   maxPi="1610.4127198917495"
   maxSlack="272.57104194857845"
   maxRedCost="3864.8579161028433"
   kappa="2.9190039130988792"/>
 <linearConstraints>
  <constraint name="c0" index="0" status="BS" slack="189.22056833558815" dual="-0"/>
  <constraint name="c1" index="1" status="BS" slack="193.08761840324729" dual="-0"/>
  <constraint name="c2" index="2" status="BS" slack="254.11028416779408" dual="-0"/>
  <constraint name="c3" index="3" status="BS" slack="272.57104194857845" dual="-0"/>
  <constraint name="c4" index="4" status="BS" slack="186.83694181326064" dual="-0"/>
  <constraint name="cut_1" index="5" status="LL" slack="0" dual="1610.4127198917495"/>
  <constraint name="cut_2" index="6" status="LL" slack="0" dual="1035.9201623815977"/>
 </linearConstraints>
 <variables>
  <variable name="x0" index="0" status="LL" value="0" reducedCost="-216.49526387009485"/>
  <variable name="x1" index="1" status="UL" value="1" reducedCost="1125"/>
  <variable name="x2" index="2" status="LL" value="0" reducedCost="-840.92692828146346"/>
  <variable name="x3" index="3" status="LL" value="0" reducedCost="-412.06359945872896"/>
  <variable name="x4" index="4" status="BS" value="0.33017591339648572" reducedCost="0"/>
  <variable name="x5" index="5" status="LL" value="0" reducedCost="-2032.7077131258502"/>
  <variable name="x6" index="6" status="LL" value="0" reducedCost="-1287.7104194857948"/>
  <variable name="x7" index="7" status="LL" value="0" reducedCost="-783.85385656292397"/>
  <variable name="x8" index="8" status="LL" value="0" reducedCost="-1714.6982408660381"/>
  <variable name="x9" index="9" status="LL" value="0" reducedCost="-2155.2733423545374"/>
  <variable name="x10" index="10" status="LL" value="0" reducedCost="-364.67794316644193"/>
  <variable name="x11" index="11" status="LL" value="0" reducedCost="-1618.63464140731"/>
  <variable name="x12" index="12" status="LL" value="0" reducedCost="-1401.3951285521007"/>
  <variable name="x13" index="13" status="LL" value="0" reducedCost="-296.47496617050138"/>
  <variable name="x14" index="14" status="LL" value="0" reducedCost="-742.87550744249165"/>
  <variable name="x15" index="15" status="UL" value="1" reducedCost="3864.8579161028433"/>
  <variable name="x16" index="16" status="LL" value="0" reducedCost="-856.11096075778346"/>
  <variable name="x17" index="17" status="LL" value="0" reducedCost="-1411.9079837618426"/>
  <variable name="x18" index="18" status="LL" value="0" reducedCost="-1033.5683355886358"/>
  <variable name="x19" index="19" status="LL" value="0" reducedCost="-1571.5385656292324"/>
  <variable name="x20" index="20" status="UL" value="1" reducedCost="631"/>
  <variable name="x21" index="21" status="LL" value="0" reducedCost="-1746.2273342354574"/>
  <variable name="x22" index="22" status="LL" value="0" reducedCost="-1379.3031123139397"/>
  <variable name="x23" index="23" status="LL" value="0" reducedCost="-652.11907983761967"/>
  <variable name="x24" index="24" status="UL" value="1" reducedCost="42"/>
  <variable name="x25" index="25" status="LL" value="0" reducedCost="-1031.7564276048738"/>
  <variable name="x26" index="26" status="LL" value="0" reducedCost="-1384.0324763193535"/>
  <variable name="x27" index="27" status="LL" value="0" reducedCost="-2474.7916102841727"/>
  <variable name="x28" index="28" status="LL" value="0" reducedCost="-1564.8254397834939"/>
  <variable name="x29" index="29" status="LL" value="0" reducedCost="-580.88768606224767"/>
  <variable name="x30" index="30" status="LL" value="0" reducedCost="-1402.7456021650901"/>
  <variable name="x31" index="31" status="LL" value="0" reducedCost="-355.67658998647011"/>
  <variable name="x32" index="32" status="LL" value="0" reducedCost="-913.10690121786502"/>
  <variable name="x33" index="33" status="LL" value="0" reducedCost="-1476.267929634645"/>
  <variable name="x34" index="34" status="LL" value="0" reducedCost="-936.52368064952714"/>
  <variable name="x35" index="35" status="UL" value="1" reducedCost="49"/>
  <variable name="x36" index="36" status="LL" value="0" reducedCost="-680.06495263870193"/>
  <variable name="x37" index="37" status="LL" value="0" reducedCost="-555.34641407307299"/>
  <variable name="x38" index="38" status="LL" value="0" reducedCost="-1150.6292286874182"/>
  <variable name="x39" index="39" status="LL" value="0" reducedCost="-511.20838971583339"/>
  <variable name="x40" index="40" status="LL" value="0" reducedCost="-272.17320703653934"/>
  <variable name="x41" index="41" status="LL" value="0" reducedCost="-1045.4194857916134"/>
  <variable name="x42" index="42" status="UL" value="1" reducedCost="2577.4018944519617"/>
  <variable name="x43" index="43" status="LL" value="0" reducedCost="-1529.7293640054161"/>
  <variable name="x44" index="44" status="LL" value="0" reducedCost="-994.79431664411459"/>
  <variable name="x45" index="45" status="LL" value="0" reducedCost="-900.90121786197847"/>
  <variable name="x46" index="46" status="BS" value="0.31968876860621837" reducedCost="0"/>
  <variable name="x47" index="47" status="LL" value="0" reducedCost="-1645.2138024357273"/>
  <variable name="x48" index="48" status="LL" value="0" reducedCost="-391.87009472259894"/>
  <variable name="x49" index="49" status="LL" value="0" reducedCost="-1060.7929634641418"/>
 </variables>
 <objectiveValues>
  <objective index="0" name="" value="10058.576454668477"/>
 </objectiveValues>
</CPLEXSolution>
